
Gurobi 9.5.1 (mac64[x86]) logging started Wed Jun  8 19:18:45 2022

Set parameter LogFile to value "/Users/keyvanmajd/Documents/GitHub/NNRepLayer_v2/demos/walking_example/dynamic_constraint/repair_net/logs/opt_log_6_8_2022_19_18_23.log"
Gurobi Optimizer version 9.5.1 build v9.5.1rc2 (mac64[x86])
Thread count: 4 physical cores, 8 logical processors, using up to 8 threads
Optimize a model with 366 rows, 134 columns and 1068 nonzeros
Model fingerprint: 0xcf374c5b
Model has 101 quadratic objective terms
Coefficient statistics:
  Matrix range     [3e-03, 2e+01]
  Objective range  [6e-02, 4e+00]
  QObjective range [2e-01, 2e+00]
  Bounds range     [1e+01, 5e+01]
  RHS range        [6e-04, 2e+01]
Presolve removed 218 rows and 10 columns
Presolve time: 0.00s
Presolved: 148 rows, 124 columns, 844 nonzeros
Presolved model has 101 quadratic objective terms
Ordering time: 0.00s

Barrier statistics:
 Dense cols : 12
 AA' NZ     : 1.106e+03
 Factor NZ  : 1.901e+03
 Factor Ops : 3.582e+04 (less than 1 second per iteration)
 Threads    : 1

                  Objective                Residual
Iter       Primal          Dual         Primal    Dual     Compl     Time
   0   4.03159652e+07 -4.04723633e+07  4.25e+03 7.27e+02  8.79e+05     0s
   1   1.20257059e+07 -1.23298175e+07  2.24e+03 3.83e+02  4.70e+05     0s
   2   1.56293787e+05 -1.07516483e+06  2.58e+02 4.41e+01  7.57e+04     0s
   3   2.13868814e+02 -6.83802162e+05  2.75e+00 4.71e-01  3.02e+03     0s
   4   1.69288504e+02 -2.43336056e+05  5.76e-01 9.83e-02  9.03e+02     0s
   5   1.61930824e+02 -1.70681854e+04  2.36e-02 4.04e-03  5.83e+01     0s
   6   1.60577969e+02 -1.89236953e+02  4.21e-04 7.19e-05  1.17e+00     0s
   7   1.40299583e+02 -4.57094509e+00  9.91e-05 1.69e-05  4.86e-01     0s
   8   1.26585565e+02  8.84458294e+01  2.41e-05 4.12e-06  1.28e-01     0s
   9   1.23065355e+02  1.11332650e+02  4.95e-06 8.46e-07  3.94e-02     0s
  10   1.21901805e+02  1.18447192e+02  7.95e-07 1.36e-07  1.16e-02     0s
  11   1.21626649e+02  1.20885628e+02  1.07e-12 7.04e-12  2.49e-03     0s
  12   1.21553628e+02  1.21514153e+02  5.76e-13 7.61e-12  1.32e-04     0s
  13   1.21549268e+02  1.21548521e+02  3.63e-12 1.82e-12  2.51e-06     0s
  14   1.21549194e+02  1.21549193e+02  1.21e-10 8.89e-12  2.51e-09     0s

Barrier solved model in 14 iterations and 0.00 seconds (0.00 work units)
Optimal objective 1.21549194e+02

